p cnf 324 1260
c p weight 15 1 0
c p weight -15 1 0
c p weight 16 0 0
c p weight -16 1 0
c p weight -13 1 0
c p weight 13 -1 0
c p weight 19 6.12323399573676603586882014729198302312846062338790031898128063403419218957424163818359375E-17 0
c p weight -19 1 0
c p weight 20 1 0
c p weight -20 1 0
c p weight -17 1 0
c p weight 17 -1 0
c p weight 23 -0.707106781186547461715008466853760182857513427734375 0
c p weight -23 1 0
c p weight 24 0.70710678118654757273731092936941422522068023681640625 0
c p weight -24 1 0
c p weight -21 1 0
c p weight 21 -1 0
c p weight 27 6.12323399573676603586882014729198302312846062338790031898128063403419218957424163818359375E-17 0
c p weight -27 1 0
c p weight 28 1 0
c p weight -28 1 0
c p weight -25 1 0
c p weight 25 -1 0
c p weight 31 -1 0
c p weight -31 1 0
c p weight 32 3.673940397442059375002259206809000622711899723162043418511757408850826323032379150390625E-16 0
c p weight -32 1 0
c p weight -29 1 0
c p weight 29 -1 0
c p weight -33 1 0
c p weight 33 -1 0
c p weight 37 6.12323399573676603586882014729198302312846062338790031898128063403419218957424163818359375E-17 0
c p weight -37 1 0
c p weight 38 1 0
c p weight -38 1 0
c p weight -35 1 0
c p weight 35 -1 0
c p weight -39 1 0
c p weight 39 -1 0
c p weight 43 1 0
c p weight -43 1 0
c p weight 44 0 0
c p weight -44 1 0
c p weight -41 1 0
c p weight 41 -1 0
c p weight 47 6.12323399573676603586882014729198302312846062338790031898128063403419218957424163818359375E-17 0
c p weight -47 1 0
c p weight 48 1 0
c p weight -48 1 0
c p weight -45 1 0
c p weight 45 -1 0
c p weight 51 -0.577350269189625731058868041145615279674530029296875 0
c p weight -51 1 0
c p weight 52 0.8164965809277260344600790631375275552272796630859375 0
c p weight -52 1 0
c p weight -49 1 0
c p weight 49 -1 0
c p weight 55 6.12323399573676603586882014729198302312846062338790031898128063403419218957424163818359375E-17 0
c p weight -55 1 0
c p weight 56 1 0
c p weight -56 1 0
c p weight -53 1 0
c p weight 53 -1 0
c p weight 59 -1 0
c p weight -59 1 0
c p weight 60 3.673940397442059375002259206809000622711899723162043418511757408850826323032379150390625E-16 0
c p weight -60 1 0
c p weight -57 1 0
c p weight 57 -1 0
c p weight -61 1 0
c p weight 61 -1 0
c p weight 65 6.12323399573676603586882014729198302312846062338790031898128063403419218957424163818359375E-17 0
c p weight -65 1 0
c p weight 66 1 0
c p weight -66 1 0
c p weight -63 1 0
c p weight 63 -1 0
c p weight -67 1 0
c p weight 67 -1 0
c p weight 71 1 0
c p weight -71 1 0
c p weight 72 0 0
c p weight -72 1 0
c p weight -69 1 0
c p weight 69 -1 0
c p weight 75 6.12323399573676603586882014729198302312846062338790031898128063403419218957424163818359375E-17 0
c p weight -75 1 0
c p weight 76 1 0
c p weight -76 1 0
c p weight -73 1 0
c p weight 73 -1 0
c p weight 79 -0.499999999999999833466546306226518936455249786376953125 0
c p weight -79 1 0
c p weight 80 0.86602540378443870761060452423407696187496185302734375 0
c p weight -80 1 0
c p weight -77 1 0
c p weight 77 -1 0
c p weight 83 6.12323399573676603586882014729198302312846062338790031898128063403419218957424163818359375E-17 0
c p weight -83 1 0
c p weight 84 1 0
c p weight -84 1 0
c p weight -81 1 0
c p weight 81 -1 0
c p weight 87 -1 0
c p weight -87 1 0
c p weight 88 3.673940397442059375002259206809000622711899723162043418511757408850826323032379150390625E-16 0
c p weight -88 1 0
c p weight -85 1 0
c p weight 85 -1 0
c p weight -89 1 0
c p weight 89 -1 0
c p weight 93 6.12323399573676603586882014729198302312846062338790031898128063403419218957424163818359375E-17 0
c p weight -93 1 0
c p weight 94 1 0
c p weight -94 1 0
c p weight -91 1 0
c p weight 91 -1 0
c p weight -95 1 0
c p weight 95 -1 0
c p weight 99 1 0
c p weight -99 1 0
c p weight 100 0 0
c p weight -100 1 0
c p weight -97 1 0
c p weight 97 -1 0
c p weight 103 6.12323399573676603586882014729198302312846062338790031898128063403419218957424163818359375E-17 0
c p weight -103 1 0
c p weight 104 1 0
c p weight -104 1 0
c p weight -101 1 0
c p weight 101 -1 0
c p weight 107 -0.447213595499957927703604809721582569181919097900390625 0
c p weight -107 1 0
c p weight 108 0.89442719099991585540720961944316513836383819580078125 0
c p weight -108 1 0
c p weight -105 1 0
c p weight 105 -1 0
c p weight 111 6.12323399573676603586882014729198302312846062338790031898128063403419218957424163818359375E-17 0
c p weight -111 1 0
c p weight 112 1 0
c p weight -112 1 0
c p weight -109 1 0
c p weight 109 -1 0
c p weight 115 -1 0
c p weight -115 1 0
c p weight 116 3.673940397442059375002259206809000622711899723162043418511757408850826323032379150390625E-16 0
c p weight -116 1 0
c p weight -113 1 0
c p weight 113 -1 0
c p weight -117 1 0
c p weight 117 -1 0
c p weight 121 6.12323399573676603586882014729198302312846062338790031898128063403419218957424163818359375E-17 0
c p weight -121 1 0
c p weight 122 1 0
c p weight -122 1 0
c p weight -119 1 0
c p weight 119 -1 0
c p weight -123 1 0
c p weight 123 -1 0
c p weight 127 1 0
c p weight -127 1 0
c p weight 128 0 0
c p weight -128 1 0
c p weight -125 1 0
c p weight 125 -1 0
c p weight 131 6.12323399573676603586882014729198302312846062338790031898128063403419218957424163818359375E-17 0
c p weight -131 1 0
c p weight 132 1 0
c p weight -132 1 0
c p weight -129 1 0
c p weight 129 -1 0
c p weight 135 -0.408248290463862850696585837795282714068889617919921875 0
c p weight -135 1 0
c p weight 136 0.91287092917527690172363463716465048491954803466796875 0
c p weight -136 1 0
c p weight -133 1 0
c p weight 133 -1 0
c p weight 139 6.12323399573676603586882014729198302312846062338790031898128063403419218957424163818359375E-17 0
c p weight -139 1 0
c p weight 140 1 0
c p weight -140 1 0
c p weight -137 1 0
c p weight 137 -1 0
c p weight 143 -1 0
c p weight -143 1 0
c p weight 144 3.673940397442059375002259206809000622711899723162043418511757408850826323032379150390625E-16 0
c p weight -144 1 0
c p weight -141 1 0
c p weight 141 -1 0
c p weight -145 1 0
c p weight 145 -1 0
c p weight 149 6.12323399573676603586882014729198302312846062338790031898128063403419218957424163818359375E-17 0
c p weight -149 1 0
c p weight 150 1 0
c p weight -150 1 0
c p weight -147 1 0
c p weight 147 -1 0
c p weight -151 1 0
c p weight 151 -1 0
c p weight -153 1 0
c p weight 153 -1 0
c p weight -154 1 0
c p weight 154 -1 0
c p weight -157 1 0
c p weight 157 -1 0
c p weight 161 6.12323399573676603586882014729198302312846062338790031898128063403419218957424163818359375E-17 0
c p weight -161 1 0
c p weight 162 1 0
c p weight -162 1 0
c p weight -159 1 0
c p weight 159 -1 0
c p weight -163 1 0
c p weight 163 -1 0
c p weight 167 1 0
c p weight -167 1 0
c p weight 168 0 0
c p weight -168 1 0
c p weight -165 1 0
c p weight 165 -1 0
c p weight 171 6.12323399573676603586882014729198302312846062338790031898128063403419218957424163818359375E-17 0
c p weight -171 1 0
c p weight 172 1 0
c p weight -172 1 0
c p weight -169 1 0
c p weight 169 -1 0
c p weight 175 -0.408248290463863072741190762826590798795223236083984375 0
c p weight -175 1 0
c p weight 176 -0.9128709291752767907013321746489964425563812255859375 0
c p weight -176 1 0
c p weight -173 1 0
c p weight 173 -1 0
c p weight 179 6.12323399573676603586882014729198302312846062338790031898128063403419218957424163818359375E-17 0
c p weight -179 1 0
c p weight 180 1 0
c p weight -180 1 0
c p weight -177 1 0
c p weight 177 -1 0
c p weight 183 -1 0
c p weight -183 1 0
c p weight 184 3.673940397442059375002259206809000622711899723162043418511757408850826323032379150390625E-16 0
c p weight -184 1 0
c p weight -181 1 0
c p weight 181 -1 0
c p weight -185 1 0
c p weight 185 -1 0
c p weight -188 1 0
c p weight 188 -1 0
c p weight 192 6.12323399573676603586882014729198302312846062338790031898128063403419218957424163818359375E-17 0
c p weight -192 1 0
c p weight 193 1 0
c p weight -193 1 0
c p weight -190 1 0
c p weight 190 -1 0
c p weight -194 1 0
c p weight 194 -1 0
c p weight 198 1 0
c p weight -198 1 0
c p weight 199 0 0
c p weight -199 1 0
c p weight -196 1 0
c p weight 196 -1 0
c p weight 202 6.12323399573676603586882014729198302312846062338790031898128063403419218957424163818359375E-17 0
c p weight -202 1 0
c p weight 203 1 0
c p weight -203 1 0
c p weight -200 1 0
c p weight 200 -1 0
c p weight 206 -0.447213595499958149748209734752890653908252716064453125 0
c p weight -206 1 0
c p weight 207 -0.89442719099991574438490715692751109600067138671875 0
c p weight -207 1 0
c p weight -204 1 0
c p weight 204 -1 0
c p weight 210 6.12323399573676603586882014729198302312846062338790031898128063403419218957424163818359375E-17 0
c p weight -210 1 0
c p weight 211 1 0
c p weight -211 1 0
c p weight -208 1 0
c p weight 208 -1 0
c p weight 214 -1 0
c p weight -214 1 0
c p weight 215 3.673940397442059375002259206809000622711899723162043418511757408850826323032379150390625E-16 0
c p weight -215 1 0
c p weight -212 1 0
c p weight 212 -1 0
c p weight -216 1 0
c p weight 216 -1 0
c p weight -219 1 0
c p weight 219 -1 0
c p weight 223 6.12323399573676603586882014729198302312846062338790031898128063403419218957424163818359375E-17 0
c p weight -223 1 0
c p weight 224 1 0
c p weight -224 1 0
c p weight -221 1 0
c p weight 221 -1 0
c p weight -225 1 0
c p weight 225 -1 0
c p weight 229 1 0
c p weight -229 1 0
c p weight 230 0 0
c p weight -230 1 0
c p weight -227 1 0
c p weight 227 -1 0
c p weight 233 6.12323399573676603586882014729198302312846062338790031898128063403419218957424163818359375E-17 0
c p weight -233 1 0
c p weight 234 1 0
c p weight -234 1 0
c p weight -231 1 0
c p weight 231 -1 0
c p weight 237 -0.500000000000000444089209850062616169452667236328125 0
c p weight -237 1 0
c p weight 238 -0.86602540378443837454369713668711483478546142578125 0
c p weight -238 1 0
c p weight -235 1 0
c p weight 235 -1 0
c p weight 241 6.12323399573676603586882014729198302312846062338790031898128063403419218957424163818359375E-17 0
c p weight -241 1 0
c p weight 242 1 0
c p weight -242 1 0
c p weight -239 1 0
c p weight 239 -1 0
c p weight 245 -1 0
c p weight -245 1 0
c p weight 246 3.673940397442059375002259206809000622711899723162043418511757408850826323032379150390625E-16 0
c p weight -246 1 0
c p weight -243 1 0
c p weight 243 -1 0
c p weight -247 1 0
c p weight 247 -1 0
c p weight -250 1 0
c p weight 250 -1 0
c p weight 254 6.12323399573676603586882014729198302312846062338790031898128063403419218957424163818359375E-17 0
c p weight -254 1 0
c p weight 255 1 0
c p weight -255 1 0
c p weight -252 1 0
c p weight 252 -1 0
c p weight -256 1 0
c p weight 256 -1 0
c p weight 260 1 0
c p weight -260 1 0
c p weight 261 0 0
c p weight -261 1 0
c p weight -258 1 0
c p weight 258 -1 0
c p weight 264 6.12323399573676603586882014729198302312846062338790031898128063403419218957424163818359375E-17 0
c p weight -264 1 0
c p weight 265 1 0
c p weight -265 1 0
c p weight -262 1 0
c p weight 262 -1 0
c p weight 268 -0.57735026918962562003656557862996123731136322021484375 0
c p weight -268 1 0
c p weight 269 -0.81649658092772614548238152565318159759044647216796875 0
c p weight -269 1 0
c p weight -266 1 0
c p weight 266 -1 0
c p weight 272 6.12323399573676603586882014729198302312846062338790031898128063403419218957424163818359375E-17 0
c p weight -272 1 0
c p weight 273 1 0
c p weight -273 1 0
c p weight -270 1 0
c p weight 270 -1 0
c p weight 276 -1 0
c p weight -276 1 0
c p weight 277 3.673940397442059375002259206809000622711899723162043418511757408850826323032379150390625E-16 0
c p weight -277 1 0
c p weight -274 1 0
c p weight 274 -1 0
c p weight -278 1 0
c p weight 278 -1 0
c p weight -281 1 0
c p weight 281 -1 0
c p weight 285 6.12323399573676603586882014729198302312846062338790031898128063403419218957424163818359375E-17 0
c p weight -285 1 0
c p weight 286 1 0
c p weight -286 1 0
c p weight -283 1 0
c p weight 283 -1 0
c p weight -287 1 0
c p weight 287 -1 0
c p weight 291 1 0
c p weight -291 1 0
c p weight 292 0 0
c p weight -292 1 0
c p weight -289 1 0
c p weight 289 -1 0
c p weight 295 6.12323399573676603586882014729198302312846062338790031898128063403419218957424163818359375E-17 0
c p weight -295 1 0
c p weight 296 1 0
c p weight -296 1 0
c p weight -293 1 0
c p weight 293 -1 0
c p weight 299 -0.7071067811865476837596133918850682675838470458984375 0
c p weight -299 1 0
c p weight 300 -0.707106781186547461715008466853760182857513427734375 0
c p weight -300 1 0
c p weight -297 1 0
c p weight 297 -1 0
c p weight 303 6.12323399573676603586882014729198302312846062338790031898128063403419218957424163818359375E-17 0
c p weight -303 1 0
c p weight 304 1 0
c p weight -304 1 0
c p weight -301 1 0
c p weight 301 -1 0
c p weight 307 -1 0
c p weight -307 1 0
c p weight 308 3.673940397442059375002259206809000622711899723162043418511757408850826323032379150390625E-16 0
c p weight -308 1 0
c p weight -305 1 0
c p weight 305 -1 0
c p weight -309 1 0
c p weight 309 -1 0
c p weight -312 1 0
c p weight 312 -1 0
c p weight -315 1 0
c p weight 315 -1 0
c p weight -318 1 0
c p weight 318 -1 0
c p weight -321 1 0
c p weight 321 -1 0
c p weight 324 0.5 0
c p weight -324 1 0
324 0
-11 0
-9 0
-7 0
-5 0
-3 0
-1 0
-13 1 0
-13 2 0
-13 -14 0
13 14 -1 -2 0
14 1 -2 0
-14 1 2 0
-15 1 0
14 -15 -2 0
-14 -15 2 0
14 15 -1 2 0
-14 15 -1 -2 0
-16 1 0
14 -16 2 0
-14 -16 -2 0
14 16 -1 -2 0
-14 16 -1 2 0
-17 18 0
-17 14 0
-17 -1 0
17 -18 1 -14 0
18 -1 14 0
-18 1 14 0
-19 14 0
18 -19 -1 0
-18 -19 1 0
18 19 1 -14 0
-18 19 -1 -14 0
-20 14 0
18 -20 1 0
-18 -20 -1 0
18 20 -1 -14 0
-18 20 1 -14 0
-21 18 0
-21 14 0
-21 -22 0
21 22 -18 -14 0
22 18 -14 0
-22 18 14 0
-23 18 0
22 -23 -14 0
-22 -23 14 0
22 23 -18 14 0
-22 23 -18 -14 0
-24 18 0
22 -24 14 0
-22 -24 -14 0
22 24 -18 -14 0
-22 24 -18 14 0
-25 26 0
-25 22 0
-25 -18 0
25 -26 18 -22 0
26 -18 22 0
-26 18 22 0
-27 22 0
26 -27 -18 0
-26 -27 18 0
26 27 18 -22 0
-26 27 -18 -22 0
-28 22 0
26 -28 18 0
-26 -28 -18 0
26 28 -18 -22 0
-26 28 18 -22 0
-29 26 0
-29 22 0
-29 -30 0
29 30 -26 -22 0
30 26 -22 0
-30 26 22 0
-31 26 0
30 -31 -22 0
-30 -31 22 0
30 31 -26 22 0
-30 31 -26 -22 0
-32 26 0
30 -32 22 0
-30 -32 -22 0
30 32 -26 -22 0
-30 32 -26 22 0
-33 26 0
-33 30 0
33 -26 -30 0
34 26 -30 0
34 -26 30 0
-34 26 30 0
-34 -26 -30 0
-35 36 0
-35 34 0
-35 -26 0
35 -36 26 -34 0
36 -26 34 0
-36 26 34 0
-37 34 0
36 -37 -26 0
-36 -37 26 0
36 37 26 -34 0
-36 37 -26 -34 0
-38 34 0
36 -38 26 0
-36 -38 -26 0
36 38 -26 -34 0
-36 38 26 -34 0
-39 36 0
-39 34 0
39 -36 -34 0
40 36 -34 0
40 -36 34 0
-40 36 34 0
-40 -36 -34 0
-41 3 0
-41 4 0
-41 -42 0
41 42 -3 -4 0
42 3 -4 0
-42 3 4 0
-43 3 0
42 -43 -4 0
-42 -43 4 0
42 43 -3 4 0
-42 43 -3 -4 0
-44 3 0
42 -44 4 0
-42 -44 -4 0
42 44 -3 -4 0
-42 44 -3 4 0
-45 46 0
-45 42 0
-45 -3 0
45 -46 3 -42 0
46 -3 42 0
-46 3 42 0
-47 42 0
46 -47 -3 0
-46 -47 3 0
46 47 3 -42 0
-46 47 -3 -42 0
-48 42 0
46 -48 3 0
-46 -48 -3 0
46 48 -3 -42 0
-46 48 3 -42 0
-49 46 0
-49 42 0
-49 -50 0
49 50 -46 -42 0
50 46 -42 0
-50 46 42 0
-51 46 0
50 -51 -42 0
-50 -51 42 0
50 51 -46 42 0
-50 51 -46 -42 0
-52 46 0
50 -52 42 0
-50 -52 -42 0
50 52 -46 -42 0
-50 52 -46 42 0
-53 54 0
-53 50 0
-53 -46 0
53 -54 46 -50 0
54 -46 50 0
-54 46 50 0
-55 50 0
54 -55 -46 0
-54 -55 46 0
54 55 46 -50 0
-54 55 -46 -50 0
-56 50 0
54 -56 46 0
-54 -56 -46 0
54 56 -46 -50 0
-54 56 46 -50 0
-57 54 0
-57 50 0
-57 -58 0
57 58 -54 -50 0
58 54 -50 0
-58 54 50 0
-59 54 0
58 -59 -50 0
-58 -59 50 0
58 59 -54 50 0
-58 59 -54 -50 0
-60 54 0
58 -60 50 0
-58 -60 -50 0
58 60 -54 -50 0
-58 60 -54 50 0
-61 54 0
-61 58 0
61 -54 -58 0
62 54 -58 0
62 -54 58 0
-62 54 58 0
-62 -54 -58 0
-63 64 0
-63 62 0
-63 -54 0
63 -64 54 -62 0
64 -54 62 0
-64 54 62 0
-65 62 0
64 -65 -54 0
-64 -65 54 0
64 65 54 -62 0
-64 65 -54 -62 0
-66 62 0
64 -66 54 0
-64 -66 -54 0
64 66 -54 -62 0
-64 66 54 -62 0
-67 64 0
-67 62 0
67 -64 -62 0
68 64 -62 0
68 -64 62 0
-68 64 62 0
-68 -64 -62 0
-69 5 0
-69 6 0
-69 -70 0
69 70 -5 -6 0
70 5 -6 0
-70 5 6 0
-71 5 0
70 -71 -6 0
-70 -71 6 0
70 71 -5 6 0
-70 71 -5 -6 0
-72 5 0
70 -72 6 0
-70 -72 -6 0
70 72 -5 -6 0
-70 72 -5 6 0
-73 74 0
-73 70 0
-73 -5 0
73 -74 5 -70 0
74 -5 70 0
-74 5 70 0
-75 70 0
74 -75 -5 0
-74 -75 5 0
74 75 5 -70 0
-74 75 -5 -70 0
-76 70 0
74 -76 5 0
-74 -76 -5 0
74 76 -5 -70 0
-74 76 5 -70 0
-77 74 0
-77 70 0
-77 -78 0
77 78 -74 -70 0
78 74 -70 0
-78 74 70 0
-79 74 0
78 -79 -70 0
-78 -79 70 0
78 79 -74 70 0
-78 79 -74 -70 0
-80 74 0
78 -80 70 0
-78 -80 -70 0
78 80 -74 -70 0
-78 80 -74 70 0
-81 82 0
-81 78 0
-81 -74 0
81 -82 74 -78 0
82 -74 78 0
-82 74 78 0
-83 78 0
82 -83 -74 0
-82 -83 74 0
82 83 74 -78 0
-82 83 -74 -78 0
-84 78 0
82 -84 74 0
-82 -84 -74 0
82 84 -74 -78 0
-82 84 74 -78 0
-85 82 0
-85 78 0
-85 -86 0
85 86 -82 -78 0
86 82 -78 0
-86 82 78 0
-87 82 0
86 -87 -78 0
-86 -87 78 0
86 87 -82 78 0
-86 87 -82 -78 0
-88 82 0
86 -88 78 0
-86 -88 -78 0
86 88 -82 -78 0
-86 88 -82 78 0
-89 82 0
-89 86 0
89 -82 -86 0
90 82 -86 0
90 -82 86 0
-90 82 86 0
-90 -82 -86 0
-91 92 0
-91 90 0
-91 -82 0
91 -92 82 -90 0
92 -82 90 0
-92 82 90 0
-93 90 0
92 -93 -82 0
-92 -93 82 0
92 93 82 -90 0
-92 93 -82 -90 0
-94 90 0
92 -94 82 0
-92 -94 -82 0
92 94 -82 -90 0
-92 94 82 -90 0
-95 92 0
-95 90 0
95 -92 -90 0
96 92 -90 0
96 -92 90 0
-96 92 90 0
-96 -92 -90 0
-97 7 0
-97 8 0
-97 -98 0
97 98 -7 -8 0
98 7 -8 0
-98 7 8 0
-99 7 0
98 -99 -8 0
-98 -99 8 0
98 99 -7 8 0
-98 99 -7 -8 0
-100 7 0
98 -100 8 0
-98 -100 -8 0
98 100 -7 -8 0
-98 100 -7 8 0
-101 102 0
-101 98 0
-101 -7 0
101 -102 7 -98 0
102 -7 98 0
-102 7 98 0
-103 98 0
102 -103 -7 0
-102 -103 7 0
102 103 7 -98 0
-102 103 -7 -98 0
-104 98 0
102 -104 7 0
-102 -104 -7 0
102 104 -7 -98 0
-102 104 7 -98 0
-105 102 0
-105 98 0
-105 -106 0
105 106 -102 -98 0
106 102 -98 0
-106 102 98 0
-107 102 0
106 -107 -98 0
-106 -107 98 0
106 107 -102 98 0
-106 107 -102 -98 0
-108 102 0
106 -108 98 0
-106 -108 -98 0
106 108 -102 -98 0
-106 108 -102 98 0
-109 110 0
-109 106 0
-109 -102 0
109 -110 102 -106 0
110 -102 106 0
-110 102 106 0
-111 106 0
110 -111 -102 0
-110 -111 102 0
110 111 102 -106 0
-110 111 -102 -106 0
-112 106 0
110 -112 102 0
-110 -112 -102 0
110 112 -102 -106 0
-110 112 102 -106 0
-113 110 0
-113 106 0
-113 -114 0
113 114 -110 -106 0
114 110 -106 0
-114 110 106 0
-115 110 0
114 -115 -106 0
-114 -115 106 0
114 115 -110 106 0
-114 115 -110 -106 0
-116 110 0
114 -116 106 0
-114 -116 -106 0
114 116 -110 -106 0
-114 116 -110 106 0
-117 110 0
-117 114 0
117 -110 -114 0
118 110 -114 0
118 -110 114 0
-118 110 114 0
-118 -110 -114 0
-119 120 0
-119 118 0
-119 -110 0
119 -120 110 -118 0
120 -110 118 0
-120 110 118 0
-121 118 0
120 -121 -110 0
-120 -121 110 0
120 121 110 -118 0
-120 121 -110 -118 0
-122 118 0
120 -122 110 0
-120 -122 -110 0
120 122 -110 -118 0
-120 122 110 -118 0
-123 120 0
-123 118 0
123 -120 -118 0
124 120 -118 0
124 -120 118 0
-124 120 118 0
-124 -120 -118 0
-125 9 0
-125 10 0
-125 -126 0
125 126 -9 -10 0
126 9 -10 0
-126 9 10 0
-127 9 0
126 -127 -10 0
-126 -127 10 0
126 127 -9 10 0
-126 127 -9 -10 0
-128 9 0
126 -128 10 0
-126 -128 -10 0
126 128 -9 -10 0
-126 128 -9 10 0
-129 130 0
-129 126 0
-129 -9 0
129 -130 9 -126 0
130 -9 126 0
-130 9 126 0
-131 126 0
130 -131 -9 0
-130 -131 9 0
130 131 9 -126 0
-130 131 -9 -126 0
-132 126 0
130 -132 9 0
-130 -132 -9 0
130 132 -9 -126 0
-130 132 9 -126 0
-133 130 0
-133 126 0
-133 -134 0
133 134 -130 -126 0
134 130 -126 0
-134 130 126 0
-135 130 0
134 -135 -126 0
-134 -135 126 0
134 135 -130 126 0
-134 135 -130 -126 0
-136 130 0
134 -136 126 0
-134 -136 -126 0
134 136 -130 -126 0
-134 136 -130 126 0
-137 138 0
-137 134 0
-137 -130 0
137 -138 130 -134 0
138 -130 134 0
-138 130 134 0
-139 134 0
138 -139 -130 0
-138 -139 130 0
138 139 130 -134 0
-138 139 -130 -134 0
-140 134 0
138 -140 130 0
-138 -140 -130 0
138 140 -130 -134 0
-138 140 130 -134 0
-141 138 0
-141 134 0
-141 -142 0
141 142 -138 -134 0
142 138 -134 0
-142 138 134 0
-143 138 0
142 -143 -134 0
-142 -143 134 0
142 143 -138 134 0
-142 143 -138 -134 0
-144 138 0
142 -144 134 0
-142 -144 -134 0
142 144 -138 -134 0
-142 144 -138 134 0
-145 138 0
-145 142 0
145 -138 -142 0
146 138 -142 0
146 -138 142 0
-146 138 142 0
-146 -138 -142 0
-147 148 0
-147 146 0
-147 -138 0
147 -148 138 -146 0
148 -138 146 0
-148 138 146 0
-149 146 0
148 -149 -138 0
-148 -149 138 0
148 149 138 -146 0
-148 149 -138 -146 0
-150 146 0
148 -150 138 0
-148 -150 -138 0
148 150 -138 -146 0
-148 150 138 -146 0
-151 148 0
-151 146 0
151 -148 -146 0
152 148 -146 0
152 -148 146 0
-152 148 146 0
-152 -148 -146 0
153 -12 0
-153 12 0
-154 11 0
-154 152 0
-154 148 -12 0
-154 -148 12 0
154 -11 148 12 -152 0
154 -11 -148 -12 -152 0
156 11 -148 0
156 -11 148 0
-156 11 148 0
-156 -11 -148 0
155 12 -152 0
155 -12 152 0
-155 12 152 0
-155 -12 -152 0
-157 156 0
-157 152 0
157 -156 -152 0
158 156 -152 0
158 -156 152 0
-158 156 152 0
-158 -156 -152 0
-159 160 0
-159 158 0
-159 -156 0
159 -160 156 -158 0
160 -156 158 0
-160 156 158 0
-161 158 0
160 -161 -156 0
-160 -161 156 0
160 161 156 -158 0
-160 161 -156 -158 0
-162 158 0
160 -162 156 0
-160 -162 -156 0
160 162 -156 -158 0
-160 162 156 -158 0
-163 160 0
-163 158 0
163 -160 -158 0
164 160 -158 0
164 -160 158 0
-164 160 158 0
-164 -160 -158 0
-165 160 0
-165 164 0
-165 -166 0
165 166 -160 -164 0
166 160 -164 0
-166 160 164 0
-167 160 0
166 -167 -164 0
-166 -167 164 0
166 167 -160 164 0
-166 167 -160 -164 0
-168 160 0
166 -168 164 0
-166 -168 -164 0
166 168 -160 -164 0
-166 168 -160 164 0
-169 170 0
-169 166 0
-169 -160 0
169 -170 160 -166 0
170 -160 166 0
-170 160 166 0
-171 166 0
170 -171 -160 0
-170 -171 160 0
170 171 160 -166 0
-170 171 -160 -166 0
-172 166 0
170 -172 160 0
-170 -172 -160 0
170 172 -160 -166 0
-170 172 160 -166 0
-173 170 0
-173 166 0
-173 -174 0
173 174 -170 -166 0
174 170 -166 0
-174 170 166 0
-175 170 0
174 -175 -166 0
-174 -175 166 0
174 175 -170 166 0
-174 175 -170 -166 0
-176 170 0
174 -176 166 0
-174 -176 -166 0
174 176 -170 -166 0
-174 176 -170 166 0
-177 178 0
-177 174 0
-177 -170 0
177 -178 170 -174 0
178 -170 174 0
-178 170 174 0
-179 174 0
178 -179 -170 0
-178 -179 170 0
178 179 170 -174 0
-178 179 -170 -174 0
-180 174 0
178 -180 170 0
-178 -180 -170 0
178 180 -170 -174 0
-178 180 170 -174 0
-181 178 0
-181 174 0
-181 -182 0
181 182 -178 -174 0
182 178 -174 0
-182 178 174 0
-183 178 0
182 -183 -174 0
-182 -183 174 0
182 183 -178 174 0
-182 183 -178 -174 0
-184 178 0
182 -184 174 0
-182 -184 -174 0
182 184 -178 -174 0
-182 184 -178 174 0
-185 178 0
-185 124 0
-185 120 -182 0
-185 -120 182 0
185 -178 120 182 -124 0
185 -178 -120 -182 -124 0
187 178 -120 0
187 -178 120 0
-187 178 120 0
-187 -178 -120 0
186 182 -124 0
186 -182 124 0
-186 182 124 0
-186 -182 -124 0
-188 187 0
-188 124 0
188 -187 -124 0
189 187 -124 0
189 -187 124 0
-189 187 124 0
-189 -187 -124 0
-190 191 0
-190 189 0
-190 -187 0
190 -191 187 -189 0
191 -187 189 0
-191 187 189 0
-192 189 0
191 -192 -187 0
-191 -192 187 0
191 192 187 -189 0
-191 192 -187 -189 0
-193 189 0
191 -193 187 0
-191 -193 -187 0
191 193 -187 -189 0
-191 193 187 -189 0
-194 191 0
-194 189 0
194 -191 -189 0
195 191 -189 0
195 -191 189 0
-195 191 189 0
-195 -191 -189 0
-196 191 0
-196 195 0
-196 -197 0
196 197 -191 -195 0
197 191 -195 0
-197 191 195 0
-198 191 0
197 -198 -195 0
-197 -198 195 0
197 198 -191 195 0
-197 198 -191 -195 0
-199 191 0
197 -199 195 0
-197 -199 -195 0
197 199 -191 -195 0
-197 199 -191 195 0
-200 201 0
-200 197 0
-200 -191 0
200 -201 191 -197 0
201 -191 197 0
-201 191 197 0
-202 197 0
201 -202 -191 0
-201 -202 191 0
201 202 191 -197 0
-201 202 -191 -197 0
-203 197 0
201 -203 191 0
-201 -203 -191 0
201 203 -191 -197 0
-201 203 191 -197 0
-204 201 0
-204 197 0
-204 -205 0
204 205 -201 -197 0
205 201 -197 0
-205 201 197 0
-206 201 0
205 -206 -197 0
-205 -206 197 0
205 206 -201 197 0
-205 206 -201 -197 0
-207 201 0
205 -207 197 0
-205 -207 -197 0
205 207 -201 -197 0
-205 207 -201 197 0
-208 209 0
-208 205 0
-208 -201 0
208 -209 201 -205 0
209 -201 205 0
-209 201 205 0
-210 205 0
209 -210 -201 0
-209 -210 201 0
209 210 201 -205 0
-209 210 -201 -205 0
-211 205 0
209 -211 201 0
-209 -211 -201 0
209 211 -201 -205 0
-209 211 201 -205 0
-212 209 0
-212 205 0
-212 -213 0
212 213 -209 -205 0
213 209 -205 0
-213 209 205 0
-214 209 0
213 -214 -205 0
-213 -214 205 0
213 214 -209 205 0
-213 214 -209 -205 0
-215 209 0
213 -215 205 0
-213 -215 -205 0
213 215 -209 -205 0
-213 215 -209 205 0
-216 209 0
-216 96 0
-216 92 -213 0
-216 -92 213 0
216 -209 92 213 -96 0
216 -209 -92 -213 -96 0
218 209 -92 0
218 -209 92 0
-218 209 92 0
-218 -209 -92 0
217 213 -96 0
217 -213 96 0
-217 213 96 0
-217 -213 -96 0
-219 218 0
-219 96 0
219 -218 -96 0
220 218 -96 0
220 -218 96 0
-220 218 96 0
-220 -218 -96 0
-221 222 0
-221 220 0
-221 -218 0
221 -222 218 -220 0
222 -218 220 0
-222 218 220 0
-223 220 0
222 -223 -218 0
-222 -223 218 0
222 223 218 -220 0
-222 223 -218 -220 0
-224 220 0
222 -224 218 0
-222 -224 -218 0
222 224 -218 -220 0
-222 224 218 -220 0
-225 222 0
-225 220 0
225 -222 -220 0
226 222 -220 0
226 -222 220 0
-226 222 220 0
-226 -222 -220 0
-227 222 0
-227 226 0
-227 -228 0
227 228 -222 -226 0
228 222 -226 0
-228 222 226 0
-229 222 0
228 -229 -226 0
-228 -229 226 0
228 229 -222 226 0
-228 229 -222 -226 0
-230 222 0
228 -230 226 0
-228 -230 -226 0
228 230 -222 -226 0
-228 230 -222 226 0
-231 232 0
-231 228 0
-231 -222 0
231 -232 222 -228 0
232 -222 228 0
-232 222 228 0
-233 228 0
232 -233 -222 0
-232 -233 222 0
232 233 222 -228 0
-232 233 -222 -228 0
-234 228 0
232 -234 222 0
-232 -234 -222 0
232 234 -222 -228 0
-232 234 222 -228 0
-235 232 0
-235 228 0
-235 -236 0
235 236 -232 -228 0
236 232 -228 0
-236 232 228 0
-237 232 0
236 -237 -228 0
-236 -237 228 0
236 237 -232 228 0
-236 237 -232 -228 0
-238 232 0
236 -238 228 0
-236 -238 -228 0
236 238 -232 -228 0
-236 238 -232 228 0
-239 240 0
-239 236 0
-239 -232 0
239 -240 232 -236 0
240 -232 236 0
-240 232 236 0
-241 236 0
240 -241 -232 0
-240 -241 232 0
240 241 232 -236 0
-240 241 -232 -236 0
-242 236 0
240 -242 232 0
-240 -242 -232 0
240 242 -232 -236 0
-240 242 232 -236 0
-243 240 0
-243 236 0
-243 -244 0
243 244 -240 -236 0
244 240 -236 0
-244 240 236 0
-245 240 0
244 -245 -236 0
-244 -245 236 0
244 245 -240 236 0
-244 245 -240 -236 0
-246 240 0
244 -246 236 0
-244 -246 -236 0
244 246 -240 -236 0
-244 246 -240 236 0
-247 240 0
-247 68 0
-247 64 -244 0
-247 -64 244 0
247 -240 64 244 -68 0
247 -240 -64 -244 -68 0
249 240 -64 0
249 -240 64 0
-249 240 64 0
-249 -240 -64 0
248 244 -68 0
248 -244 68 0
-248 244 68 0
-248 -244 -68 0
-250 249 0
-250 68 0
250 -249 -68 0
251 249 -68 0
251 -249 68 0
-251 249 68 0
-251 -249 -68 0
-252 253 0
-252 251 0
-252 -249 0
252 -253 249 -251 0
253 -249 251 0
-253 249 251 0
-254 251 0
253 -254 -249 0
-253 -254 249 0
253 254 249 -251 0
-253 254 -249 -251 0
-255 251 0
253 -255 249 0
-253 -255 -249 0
253 255 -249 -251 0
-253 255 249 -251 0
-256 253 0
-256 251 0
256 -253 -251 0
257 253 -251 0
257 -253 251 0
-257 253 251 0
-257 -253 -251 0
-258 253 0
-258 257 0
-258 -259 0
258 259 -253 -257 0
259 253 -257 0
-259 253 257 0
-260 253 0
259 -260 -257 0
-259 -260 257 0
259 260 -253 257 0
-259 260 -253 -257 0
-261 253 0
259 -261 257 0
-259 -261 -257 0
259 261 -253 -257 0
-259 261 -253 257 0
-262 263 0
-262 259 0
-262 -253 0
262 -263 253 -259 0
263 -253 259 0
-263 253 259 0
-264 259 0
263 -264 -253 0
-263 -264 253 0
263 264 253 -259 0
-263 264 -253 -259 0
-265 259 0
263 -265 253 0
-263 -265 -253 0
263 265 -253 -259 0
-263 265 253 -259 0
-266 263 0
-266 259 0
-266 -267 0
266 267 -263 -259 0
267 263 -259 0
-267 263 259 0
-268 263 0
267 -268 -259 0
-267 -268 259 0
267 268 -263 259 0
-267 268 -263 -259 0
-269 263 0
267 -269 259 0
-267 -269 -259 0
267 269 -263 -259 0
-267 269 -263 259 0
-270 271 0
-270 267 0
-270 -263 0
270 -271 263 -267 0
271 -263 267 0
-271 263 267 0
-272 267 0
271 -272 -263 0
-271 -272 263 0
271 272 263 -267 0
-271 272 -263 -267 0
-273 267 0
271 -273 263 0
-271 -273 -263 0
271 273 -263 -267 0
-271 273 263 -267 0
-274 271 0
-274 267 0
-274 -275 0
274 275 -271 -267 0
275 271 -267 0
-275 271 267 0
-276 271 0
275 -276 -267 0
-275 -276 267 0
275 276 -271 267 0
-275 276 -271 -267 0
-277 271 0
275 -277 267 0
-275 -277 -267 0
275 277 -271 -267 0
-275 277 -271 267 0
-278 271 0
-278 40 0
-278 36 -275 0
-278 -36 275 0
278 -271 36 275 -40 0
278 -271 -36 -275 -40 0
280 271 -36 0
280 -271 36 0
-280 271 36 0
-280 -271 -36 0
279 275 -40 0
279 -275 40 0
-279 275 40 0
-279 -275 -40 0
-281 280 0
-281 40 0
281 -280 -40 0
282 280 -40 0
282 -280 40 0
-282 280 40 0
-282 -280 -40 0
-283 284 0
-283 282 0
-283 -280 0
283 -284 280 -282 0
284 -280 282 0
-284 280 282 0
-285 282 0
284 -285 -280 0
-284 -285 280 0
284 285 280 -282 0
-284 285 -280 -282 0
-286 282 0
284 -286 280 0
-284 -286 -280 0
284 286 -280 -282 0
-284 286 280 -282 0
-287 284 0
-287 282 0
287 -284 -282 0
288 284 -282 0
288 -284 282 0
-288 284 282 0
-288 -284 -282 0
-289 284 0
-289 288 0
-289 -290 0
289 290 -284 -288 0
290 284 -288 0
-290 284 288 0
-291 284 0
290 -291 -288 0
-290 -291 288 0
290 291 -284 288 0
-290 291 -284 -288 0
-292 284 0
290 -292 288 0
-290 -292 -288 0
290 292 -284 -288 0
-290 292 -284 288 0
-293 294 0
-293 290 0
-293 -284 0
293 -294 284 -290 0
294 -284 290 0
-294 284 290 0
-295 290 0
294 -295 -284 0
-294 -295 284 0
294 295 284 -290 0
-294 295 -284 -290 0
-296 290 0
294 -296 284 0
-294 -296 -284 0
294 296 -284 -290 0
-294 296 284 -290 0
-297 294 0
-297 290 0
-297 -298 0
297 298 -294 -290 0
298 294 -290 0
-298 294 290 0
-299 294 0
298 -299 -290 0
-298 -299 290 0
298 299 -294 290 0
-298 299 -294 -290 0
-300 294 0
298 -300 290 0
-298 -300 -290 0
298 300 -294 -290 0
-298 300 -294 290 0
-301 302 0
-301 298 0
-301 -294 0
301 -302 294 -298 0
302 -294 298 0
-302 294 298 0
-303 298 0
302 -303 -294 0
-302 -303 294 0
302 303 294 -298 0
-302 303 -294 -298 0
-304 298 0
302 -304 294 0
-302 -304 -294 0
302 304 -294 -298 0
-302 304 294 -298 0
-305 302 0
-305 298 0
-305 -306 0
305 306 -302 -298 0
306 302 -298 0
-306 302 298 0
-307 302 0
306 -307 -298 0
-306 -307 298 0
306 307 -302 298 0
-306 307 -302 -298 0
-308 302 0
306 -308 298 0
-306 -308 -298 0
306 308 -302 -298 0
-306 308 -302 298 0
-309 178 0
-309 155 0
-309 11 -186 0
-309 -11 186 0
309 -178 11 186 -155 0
309 -178 -11 -186 -155 0
311 178 -11 0
311 -178 11 0
-311 178 11 0
-311 -178 -11 0
310 186 -155 0
310 -186 155 0
-310 186 155 0
-310 -186 -155 0
-312 209 0
-312 310 0
-312 178 -217 0
-312 -178 217 0
312 -209 178 217 -310 0
312 -209 -178 -217 -310 0
314 209 -178 0
314 -209 178 0
-314 209 178 0
-314 -209 -178 0
313 217 -310 0
313 -217 310 0
-313 217 310 0
-313 -217 -310 0
-315 240 0
-315 313 0
-315 209 -248 0
-315 -209 248 0
315 -240 209 248 -313 0
315 -240 -209 -248 -313 0
317 240 -209 0
317 -240 209 0
-317 240 209 0
-317 -240 -209 0
316 248 -313 0
316 -248 313 0
-316 248 313 0
-316 -248 -313 0
-318 271 0
-318 316 0
-318 240 -279 0
-318 -240 279 0
318 -271 240 279 -316 0
318 -271 -240 -279 -316 0
320 271 -240 0
320 -271 240 0
-320 271 240 0
-320 -271 -240 0
319 279 -316 0
319 -279 316 0
-319 279 316 0
-319 -279 -316 0
-321 302 0
-321 319 0
-321 271 -306 0
-321 -271 306 0
321 -302 271 306 -319 0
321 -302 -271 -306 -319 0
323 302 -271 0
323 -302 271 0
-323 302 271 0
-323 -302 -271 0
322 306 -319 0
322 -306 319 0
-322 306 319 0
-322 -306 -319 0
-302 0
-323 0
-319 0
-320 0
-316 0
-317 0
-313 0
-314 0
-310 0
-311 0
-155 0
